	Costo	Nv	Tiempo
1	1555,61	6	6,531
2	2126,91	11	13,546
3	2917,2	10	24,033
4	4667,93	19	53,469
5	5899,17	28	98,817
6	1411,82	5	6,625
7	2462,1	18	13,704
8	3077,17	14	24,126
9	4422,25	13	53,622
10	5732,31	17	96,433
11	4885,17	19	34,685
12	3685,71	27	22,904
13	6296	24	34,825
14	3574,45	18	23,092
